(set-logic UF)
(declare-sort S1 0)
(declare-sort S2 0)
(declare-sort S3 0)
(declare-sort S4 0)
(declare-sort S5 0)
(declare-sort S6 0)
(declare-sort S7 0)
(declare-sort S8 0)
(declare-sort S9 0)
(declare-sort S10 0)
(declare-sort S11 0)
(declare-sort S12 0)
(declare-sort S13 0)
(declare-sort S14 0)
(declare-sort S15 0)
(declare-sort S16 0)
(declare-sort S17 0)
(declare-sort S18 0)
(declare-sort S19 0)
(declare-sort S20 0)
(declare-sort S21 0)
(declare-sort S22 0)
(declare-sort S23 0)
(declare-sort S24 0)
(declare-sort S25 0)
(declare-sort S26 0)
(declare-sort S27 0)
(declare-sort S28 0)
(declare-sort S29 0)
(declare-sort S30 0)
(declare-sort S31 0)
(declare-sort S32 0)
(declare-sort S33 0)
(declare-sort S34 0)
(declare-sort S35 0)
(declare-sort S36 0)
(declare-sort S37 0)
(declare-sort S38 0)
(declare-sort S39 0)
(declare-sort S40 0)
(declare-sort S41 0)
(declare-sort S42 0)
(declare-sort S43 0)
(declare-sort S44 0)
(declare-sort S45 0)
(declare-sort S46 0)
(declare-sort S47 0)
(declare-sort S48 0)
(declare-sort S49 0)
(declare-sort S50 0)
(declare-sort S51 0)
(declare-sort S52 0)
(declare-sort S53 0)
(declare-sort S54 0)
(declare-sort S55 0)
(declare-sort S56 0)
(declare-sort S57 0)
(declare-sort S58 0)
(declare-sort S59 0)
(declare-sort S60 0)
(declare-sort S61 0)
(declare-sort S62 0)
(declare-sort S63 0)
(declare-sort S64 0)
(declare-sort S65 0)
(declare-sort S66 0)
(declare-sort S67 0)
(declare-sort S68 0)
(declare-sort S69 0)
(declare-sort S70 0)
(declare-sort S71 0)
(declare-sort S72 0)
(declare-sort S73 0)
(declare-sort S74 0)
(declare-sort S75 0)
(declare-sort S76 0)
(declare-sort S77 0)
(declare-sort S78 0)
(declare-sort S79 0)
(declare-sort S80 0)
(declare-sort S81 0)
(declare-sort S82 0)
(declare-sort S83 0)
(declare-sort S84 0)
(declare-sort S85 0)
(declare-sort S86 0)
(declare-sort S87 0)
(declare-sort S88 0)
(declare-sort S89 0)
(declare-sort S90 0)
(declare-sort S91 0)
(declare-sort S92 0)
(declare-sort S93 0)
(declare-sort S94 0)
(declare-sort S95 0)
(declare-sort S96 0)
(declare-sort S97 0)
(declare-sort S98 0)
(declare-fun f1 () S1)
(declare-fun f2 () S1)
(declare-fun f3 (S4 S3) S1)
(declare-fun f4 (S5 S3) S4)
(declare-fun f5 (S2) S5)
(declare-fun f6 (S6 S2) S1)
(declare-fun f7 (S7 S3) S6)
(declare-fun f8 (S8 S3) S7)
(declare-fun f9 () S8)
(declare-fun f10 (S10 S9) S1)
(declare-fun f11 (S11 S9) S10)
(declare-fun f12 (S4) S11)
(declare-fun f13 (S3 S4) S1)
(declare-fun f14 (S12 S9) S3)
(declare-fun f15 (S13 S9) S12)
(declare-fun f16 () S13)
(declare-fun f17 (S16 S15) S1)
(declare-fun f18 (S17 S15) S16)
(declare-fun f19 (S14) S17)
(declare-fun f20 (S18 S14) S1)
(declare-fun f21 (S19 S15) S18)
(declare-fun f22 (S20 S15) S19)
(declare-fun f23 () S20)
(declare-fun f24 (S22 S21) S1)
(declare-fun f25 (S23 S21) S22)
(declare-fun f26 (S10) S23)
(declare-fun f27 (S9 S10) S1)
(declare-fun f28 (S24 S21) S9)
(declare-fun f29 (S25 S21) S24)
(declare-fun f30 () S25)
(declare-fun f31 (S28 S27) S1)
(declare-fun f32 (S29 S27) S28)
(declare-fun f33 (S26) S29)
(declare-fun f34 (S30 S26) S1)
(declare-fun f35 (S31 S27) S30)
(declare-fun f36 (S32 S27) S31)
(declare-fun f37 () S32)
(declare-fun f38 (S34 S33) S1)
(declare-fun f39 (S35 S33) S34)
(declare-fun f40 (S16) S35)
(declare-fun f41 (S15 S16) S1)
(declare-fun f42 (S36 S33) S15)
(declare-fun f43 (S37 S33) S36)
(declare-fun f44 () S37)
(declare-fun f45 (S39 S38) S34)
(declare-fun f46 (S22) S39)
(declare-fun f47 (S21 S22) S1)
(declare-fun f48 (S40 S33) S21)
(declare-fun f49 (S41 S38) S40)
(declare-fun f50 () S41)
(declare-fun f51 (S43 S42) S1)
(declare-fun f52 (S44 S42) S43)
(declare-fun f53 (S28) S44)
(declare-fun f54 (S27 S28) S1)
(declare-fun f55 (S45 S42) S27)
(declare-fun f56 (S46 S42) S45)
(declare-fun f57 () S46)
(declare-fun f58 (S48 S47) S43)
(declare-fun f59 (S34) S48)
(declare-fun f60 (S33 S34) S1)
(declare-fun f61 (S49 S42) S33)
(declare-fun f62 (S50 S47) S49)
(declare-fun f63 () S50)
(declare-fun f64 (S52 S47 S53 S38 S51) S1)
(declare-fun f65 () S52)
(declare-fun f66 () S47)
(declare-fun f67 () S53)
(declare-fun f68 (S54 S55) S38)
(declare-fun f69 (S56 S55) S54)
(declare-fun f70 (S57 S38) S56)
(declare-fun f71 () S57)
(declare-fun f72 () S38)
(declare-fun f73 () S55)
(declare-fun f74 () S55)
(declare-fun f75 (S52 S51 S51) S1)
(declare-fun f76 () S51)
(declare-fun f77 () S51)
(declare-fun f78 () S51)
(declare-fun f79 (S52 S55 S55 S51 S55) S1)
(declare-fun f80 () S55)
(declare-fun f81 () S47)
(declare-fun f82 () S38)
(declare-fun f83 (S58 S55) S51)
(declare-fun f84 () S58)
(declare-fun f85 (S59 S52) S1)
(declare-fun f86 () S59)
(declare-fun f87 (S60 S53) S34)
(declare-fun f88 (S52) S60)
(declare-fun f89 () S42)
(declare-fun f90 () S42)
(declare-fun f91 (S52) S10)
(declare-fun f92 (S2 S6) S1)
(declare-fun f93 (S14 S18) S1)
(declare-fun f94 (S26 S30) S1)
(declare-fun f95 (S61 S47) S1)
(declare-fun f96 (S52) S61)
(declare-fun f97 (S52 S47 S42 S53) S1)
(declare-fun f98 (S33) S47)
(declare-fun f99 (S47) S61)
(declare-fun f100 (S62 S38) S1)
(declare-fun f101 (S63 S38) S16)
(declare-fun f102 (S64 S63) S10)
(declare-fun f103 (S62) S64)
(declare-fun f104 (S65 S21) S10)
(declare-fun f105 (S66 S65) S4)
(declare-fun f106 (S22) S66)
(declare-fun f107 (S67 S47) S28)
(declare-fun f108 (S68 S67) S16)
(declare-fun f109 (S61) S68)
(declare-fun f110 (S69 S3) S2)
(declare-fun f111 (S70 S71) S1)
(declare-fun f112 (S6 S6) S70)
(declare-fun f113 (S72 S69) S71)
(declare-fun f114 (S4) S72)
(declare-fun f115 (S73 S15) S14)
(declare-fun f116 (S74 S75) S1)
(declare-fun f117 (S18 S18) S74)
(declare-fun f118 (S76 S73) S75)
(declare-fun f119 (S16) S76)
(declare-fun f120 (S77 S27) S26)
(declare-fun f121 (S78 S79) S1)
(declare-fun f122 (S30 S30) S78)
(declare-fun f123 (S80 S77) S79)
(declare-fun f124 (S28) S80)
(declare-fun f125 (S81 S42) S28)
(declare-fun f126 (S82 S81) S26)
(declare-fun f127 (S43) S82)
(declare-fun f128 (S83 S33) S16)
(declare-fun f129 (S84 S83) S14)
(declare-fun f130 (S34) S84)
(declare-fun f131 (S85 S9) S4)
(declare-fun f132 (S86 S85) S2)
(declare-fun f133 (S10) S86)
(declare-fun f134 (S51) S1)
(declare-fun f135 (S87 S42) S42)
(declare-fun f136 (S42) S87)
(declare-fun f137 (S10) S10)
(declare-fun f138 (S2) S2)
(declare-fun f139 (S14) S14)
(declare-fun f140 (S26) S26)
(declare-fun f141 (S28) S28)
(declare-fun f142 (S16) S16)
(declare-fun f143 (S4) S4)
(declare-fun f144 (S71) S71)
(declare-fun f145 (S75) S75)
(declare-fun f146 (S79) S79)
(declare-fun f147 (S88 S38) S38)
(declare-fun f148 () S88)
(declare-fun f149 (S89 S38) S88)
(declare-fun f150 () S89)
(declare-fun f151 (S90 S55) S88)
(declare-fun f152 () S90)
(declare-fun f153 (S91 S38) S89)
(declare-fun f154 () S91)
(declare-fun f155 (S93 S92) S88)
(declare-fun f156 (S94 S38) S93)
(declare-fun f157 () S94)
(declare-fun f158 (S96 S95) S38)
(declare-fun f159 (S97 S55) S96)
(declare-fun f160 (S98 S38) S97)
(declare-fun f161 () S98)
(assert (not (= (forall ((?v0 S51)) (or (not (= f1 (f64 f65 f66 f67 (f68 (f69 (f70 f71 f72) f73) f74) ?v0))) (not (= f1 (f75 f65 ?v0 f76))))) (forall ((?v0 S51)) (or (not (= (f64 f65 f66 f67 f72 f78) (f64 f65 f66 f67 (f68 (f69 (f70 f71 f72) f73) f74) ?v0))) (not (= (f64 f65 f66 f67 f72 f78) (f75 f65 ?v0 f76))))))))
(assert (= (f64 f65 f66 f67 f72 f77) f1))
(check-sat)
(exit)
